c ====================[ Coprocessor 7.1.0                    v7.1.0-dirty ]================================
c | Norbert Manthey. The use of the tool is limited to research only!                                     |
c | Contributors:                                                                                         |
c |     Kilian Gebhard                                                                                    |
c |     Lucas Kahlert, Franziska Krüger, Aaron Stephan                                                    |
c ============================[ Problem Statistics ]=======================================================
c |                                                                                                       |
c |  Number of variables:           300                                                                  |
c |  Number of clauses:            1650                                                                   |
c |  Parse time:                   0.00 s                                                                 |
c [STAT] CP3 0.013949 s-ppTime, 0 s-ipTime, 0.0139481 s-ppwTime, 0 s-ipwTime, 9 MB, ok 0.000599 s-ohTime, 
c [STAT] CP3(2) 2656 cls, 0 learnts, -1006 rem-cls, 0 rem-learnts, 
c [STAT] UP 7e-06 s, 0 units, 0 cls, 0 lits
c [STAT] SuSi(1) 0.000517 s, 0 cls,  with 0 lits, 0 strengthed 
c [STAT] SuSi(2) 13528 subs-steps, 21625 strenght-steps, 0 increases, 0.001094s strengthening 
c [STAT] EE 0.001182 s, 0 steps 0 ee-lits 0 removedCls, 0 removedSubCls,
c [STAT] EE-gate 7.9e-05 s, 0 steps, 0.00091 extractGateTime, 
c [STAT] BVE(1) 0.00075 s, 0.000117 s spent on subsimp, 45 vars tested, 45 anticipations, 512 vars skipped, 3221 checks, 
c [STAT] BVE(2) 429 rem cls, with 1332 lits, 0 learnts rem, with 0 lits, 1435 new cls, with 5963 lits, 0 new learnts, with 0 lits, 
c [STAT] BVE(3) 29 vars eliminated, 0 units enqueued, 0 BC removed, with 0 lits, 0 blocked learnts removed, with 0 lits, 
c [STAT] BVE(4) 0 gateDefs, 0 usedGates, 0 gateSeconds, 
c [STAT] BVE(5) 29 incElims, 0 keepElims, 0 decElims, 1006 totalAdds,
c [STAT] UNHIDE 0.001087 s, 0 cls, 0 totalLits, 0 lits 
c [STAT] UNHIDE(2) 0 prSecs, 0 prSteps, 0 L1units, 0 L2units, 0 L3units, 0 L4units, 0 L5units, 
c [STAT] UNHIDE(3) 0 EE-checks, 0 EE-cands, 0 EEs 
c [STAT] XOR 0.001279s, 0.001197 parse-s, 5.8e-05 reason-s, 
c [STAT] XOR(2) 0 xors, 0 subXors, 0 resXors, 0 clauses, 0 resClauses, 0 resTauts, 0 resStrength, 4301 findChecks, 
c [STAT] XOR(3) 0 steps, 600 empties, 0 listUnits, 0 useLists, 0 xorUnits, 0 eqs, 
c [STAT] XOR(4) 2652 participating, 0.859643 ratio, 0 simDecisions, 0 xorProps, 0 clsProps, 
c [STAT] BCE 0.001677 seconds, 19558 steps, 1084 testLits, 0 remBCE, 0 BCMs, 0 BCMcands, 0 BCMlits, 
c [STAT] CLE 0 remCLE, 0 cleUnits, 
c [STAT] BCE-CLA 0 seconds, 0 steps, 0 testLits, 0 extClss, 0 extLits, 0 possibles, 
c [STAT] FM 0.005409 s, 0.000173 amo-s, 0.006729 fm-s, 0.001071 amt-s, 0 amos, 0 amts, 0 sameUnits, 0 deducedUnits, 0 propUnits, 0 cls, 0 steps, 26365 searchSteps, 0 addDups, 
c [STAT] FM(2) 0 irregulars, 0 pureAmoLits, 0 diff, 0 discards, 0 addedCs, 0 removedCs, 0 newAmos, 0 discardedNewAmos, 
c [STAT] FM(3) 0 newAmoBinCls, 0 newCls, 0 newAlos, 0 newAlks, 0 duplicates, 0 garbageCollecst, 
c [STAT] FM(4) 4e-06 2PrdTime, 0 2PrAmos, 0 2PrLits, 2e-06 dedAloTime, 0 dedAlos, 
c [STAT] FM(5) time: 0.003974 s,steps: 26624 cards: 0 failed: 4306 extLits: 0 redDegree: 0 probes: 4958 conflictProbes: 1 savedPreCls: 0 savedPostCls: 0 units: 12063
c [STAT] DENSE 29 gaps
c |  Simplification time:          0.01 s                                                                 |
c |                                                                                                       |
c ==============================[ Writing DIMACS ]=========================================================
c =============================[ Writing Undo Info ]=======================================================
c write undo for 252 clauses and 0 units
c preprocessed 0 seconds
c starting sparrow solver
c Instance name       :  /home/lorenz/SAT2018/s2r_bin/tmp/cp_tmpCNF_47869
c Number of variables :  271
c Number of literals  :  542
c Number of Clauses   :  2656
c MaxNumOccurences    :  66
c MaxClauseSize       :  6
c MinClauseSize       :  3
c Ratio               :  9.8007
c Parameter setting   :  7 SAT

c Sparrow 2014 Parameteres: 
c c1                  : 6.5000
c c2                  : 4
c c3                  : 100000
c smoothing prob.     : 0.830
c seed                : 0
c XOR implementation  : yes
c using:              : random clause selection
c maxTries            : 9223372036854775807
c maxFlips            : 500000000
c timeout             : 900sec
c luby restarts       : yes
c luby base           : 262144
c keep assignement    : yes
c sp sequence:        : 0.000, 0.100, 0.600, 1.000, 0.900, 0.600, 0.800, 0.600, 0.000, 
c -->Starting solver  : 

c UNKNOWN best(   1) current(   2) (3.82000        sec)
c EndStatistics:
c numFlips                      : 13722880 
c numProbWalks                  : 13111568  (95.55%) 
c gradientWalks                 : 611312    (4.45%) 
c numSmooth                     : 0         (0.00%) 
c numWeight                     : 0         (0.00%) 
c Try CPU Time                  : 3.820   
c totalTries                    : 508      
c totalFlips                    : 500000000
c flips/sec                     : 2637687 
c Total CPU Time                : 189.560 sec
c solved 190 seconds
c parse model from /home/lorenz/SAT2018/s2r_bin/tmp/cp_model_47869
c WARNING: could not find any solution information!
c opened var map /home/lorenz/SAT2018/s2r_bin/tmp/cp_undo_47869.map for reading ... 
c use Riss 7.1
c [STAT] CP3 0.015735 s-ppTime, 0 s-ipTime, 0.015735 s-ppwTime, 0 s-ipwTime, 9 MB, ok 0.000575 s-ohTime, 
c [STAT] CP3(2) 2411 cls, 0 learnts, -761 rem-cls, 0 rem-learnts, 
c [STAT] UP 7e-06 s, 0 units, 0 cls, 0 lits
c [STAT] SuSi(1) 0.000539 s, 0 cls,  with 0 lits, 0 strengthed 
c [STAT] SuSi(2) 12028 subs-steps, 25701 strenght-steps, 0 increases, 0.001253s strengthening 
c [STAT] EE 0.001161 s, 0 steps 0 ee-lits 0 removedCls, 0 removedSubCls,
c [STAT] EE-gate 7.3e-05 s, 0 steps, 0.000905 extractGateTime, 
c [STAT] BVE(1) 0.003348 s, 0.001934 s spent on subsimp, 42 vars tested, 42 anticipations, 516 vars skipped, 2518 checks, 
c [STAT] BVE(2) 488 rem cls, with 1480 lits, 0 learnts rem, with 0 lits, 1249 new cls, with 5071 lits, 0 new learnts, with 0 lits, 
c [STAT] BVE(3) 42 vars eliminated, 0 units enqueued, 0 BC removed, with 0 lits, 0 blocked learnts removed, with 0 lits, 
c [STAT] BVE(4) 0 gateDefs, 0 usedGates, 8.1e-05 gateSeconds, 
c [STAT] BVE(5) 40 incElims, 0 keepElims, 2 decElims, 761 totalAdds,
c [STAT] UNHIDE 0.002229 s, 0 cls, 0 totalLits, 0 lits 
c [STAT] UNHIDE(2) 0 prSecs, 0 prSteps, 0 L1units, 0 L2units, 0 L3units, 0 L4units, 0 L5units, 
c [STAT] UNHIDE(3) 0 EE-checks, 0 EE-cands, 0 EEs 
c [STAT] XOR 0.001216s, 0.001139 parse-s, 5.6e-05 reason-s, 
c [STAT] XOR(2) 0 xors, 0 subXors, 0 resXors, 0 clauses, 0 resClauses, 0 resTauts, 0 resStrength, 4056 findChecks, 
c [STAT] XOR(3) 0 steps, 600 empties, 0 listUnits, 0 useLists, 0 xorUnits, 0 eqs, 
c [STAT] XOR(4) 2407 participating, 0.830286 ratio, 0 simDecisions, 0 xorProps, 0 clsProps, 
c [STAT] BCE 0.001851 seconds, 17498 steps, 1032 testLits, 0 remBCE, 0 BCMs, 0 BCMcands, 0 BCMlits, 
c [STAT] CLE 1 remCLE, 0 cleUnits, 
c [STAT] BCE-CLA 0 seconds, 0 steps, 0 testLits, 0 extClss, 0 extLits, 0 possibles, 
c [STAT] FM 0.004977 s, 0.000176 amo-s, 0.01063 fm-s, 0.001007 amt-s, 0 amos, 0 amts, 0 sameUnits, 0 deducedUnits, 0 propUnits, 0 cls, 0 steps, 25003 searchSteps, 0 addDups, 
c [STAT] FM(2) 0 irregulars, 0 pureAmoLits, 0 diff, 0 discards, 0 addedCs, 0 removedCs, 0 newAmos, 0 discardedNewAmos, 
c [STAT] FM(3) 0 newAmoBinCls, 0 newCls, 0 newAlos, 0 newAlks, 0 duplicates, 0 garbageCollecst, 
c [STAT] FM(4) 4e-06 2PrdTime, 0 2PrAmos, 0 2PrLits, 1e-06 dedAloTime, 0 dedAlos, 
c [STAT] FM(5) time: 0.003603 s,steps: 24231 cards: 0 failed: 4061 extLits: 0 redDegree: 0 probes: 4590 conflictProbes: 0 savedPreCls: 0 savedPostCls: 0 units: 10793
c [STAT] DENSE 42 gaps
c Riss 7.1 used 3 seconds with exit code 10
c pp-time: 0 SLS-time: 190  CDCL-time: 3
c solved with: Riss 7.1
 c
c SparrowToRiss 2018
c Adrian Balint, Norbert Manthey
c
c undo: /home/lorenz/SAT2018/s2r_bin/tmp/cp_undo_47869 tmpCNF: /home/lorenz/SAT2018/s2r_bin/tmp/cp_tmpCNF_47869 model: /home/lorenz/SAT2018/s2r_bin/tmp/cp_model_47869 realModel: /home/lorenz/SAT2018/s2r_bin/tmp/model_47869
c preprocessed 0 seconds with exit code 0
c not solved by preprocessor -- do search
c post-process with coprocessor
c WARNING: for repeatability, setting FPU to use double precision
c =================[ riss (core) 7.1.0                    v7.1.0-dirty ]===================================
c | Norbert Manthey. The use of the tool is limited to research only!                                     |
c | Based on Minisat 2.2 and Glucose 2.1  -- thanks!                                                      |
c | Contributors:                                                                                         |
c |      Kilian Gebhardt                                                                                  |
c |      Lucas Kahlert, Franziska Krüger, Aaron Stephan                                                   |
c ============================[ Problem Statistics ]=======================================================
c |                                                                                                       |
c |  Number of variables:                300                                                              |
c |  Number of clauses:                 1650                                                              |
c |  Number of total literals:          4950                                                              |
c |  Parse time:                        0.00 s                                                            |
c |                                                                                                       |
c ========================================[ MAGIC CONSTANTS ]==============================================
c | Constants are supposed to work well together :-)                                                      |
c | however, if you find better choices, please let us known...                                           |
c |-------------------------------------------------------------------------------------------------------|
c |                                |                                |                                     |
c | - Restarts:                    | - Reduce Clause DB:            | - Minimize Asserting:               |
c |   * LBD Queue    :     50      |   * First     :   4000         |    * size <  30                     |
c |   * Trail  Queue :   5000      |   * Inc       :    300         |    * lbd  <   6                     |
c |   * K            :   0.80      |   * Special   :   1000         |                                     |
c |   * R            :   1.40      |   * Protected :  (lbd)< 30     |                                     |
c |                                |                                |                                     |
c =========================================================================================================
c =========================================================================================================
c | solve clauses:         2411  solve variables:          258                                            |
c =========================================================================================================
c ==================================[ Search Statistics (every  10000 conflicts) ]=========================
c |                                                                                                       |
c |          RESTARTS           |          ORIGINAL         |              LEARNT              | Progress |
c |       NB   Blocked  Avg Cfc |    Vars  Clauses Literals |   Red   Learnts    LBD2  Removed |          |
c =========================================================================================================
c |        2         0     5000 |     300     2411     8540 |     1     8037       19     1962 |  0.002 % | 
c |        2       157    10000 |     300     2411     8540 |     3     7135       36    12864 |  0.002 % | 
c |        2       298    15000 |     300     2411     8540 |     3    17135       62    12864 |  0.002 % | 
c |        2       448    20000 |     300     2411     8540 |     4    17955       83    22044 |  0.005 % | 
c |        6       593     8333 |     300     2411     8540 |     5    16218      113    33781 |  0.002 % | 
c |       12       742     5000 |     300     2411     8540 |     5    26218      124    33781 |  0.002 % | 
c =========================================================================================================
c Tinimt-Ratios: ratioCpW: 0.93 ,overhead/Total 0.34 0.32 
c Timing(cpu,wall, in s): total: 2.75 2.97 ,prop: 1.51 1.67 ,analysis: 0.28 0.32 ,ext.Res.: 0.00 0.00 ,reduce: 0.02 0.02 ,overhead 0.94 0.96
c PP-Timing(cpu,wall, in s): preprocessing( 1 ): 0.02 0.02 ,inprocessing (0 ): 0.00 0.00
c Trivial Polarity: True: 0  False: 0
c Learnt At Level 1: 0  Multiple: 0 Units: 0
c LAs: 0.000000 laSeconds 0 LA assigned: 0 tabus: 0, failedLas: 0, maxEvery 0, eeV: 0 eeL: 0 
c otfss: 0 (l1: 0 ),cls: 0 ,units: 0 ,binaries: 0, eagerCandidates: 0
c learning: 69008 cls, 12.821731 avg. size, 8.605698 avg. LBD, 39 maxSize
c res.ext.res.: 0 rer, 0 rerSizeCands, 0 sizeReject, 0 patternReject, 0 bloomReject, 0 maxSize, 0.00 avgSize, 0.00 totalLits, 0 gates
c ER rewrite: 0 cls, 0 lits
c i.cls.strengthening: 0.00 seconds, 0 calls, 0 candidates, 0 droppedBefore, 0 shrinked, 0 shrinkedLits
c bi-asserting: 0 pre-Mini, 0 post-Mini, 0.000 rel-pre, 0.000 rel-post
c search-UHLE: 0 attempts, 0 rem-lits
c revMin: 13418 tries 99 succesful 102 dropped 0 cut 102 conflicts
c decisionClauses: 0
c IntervalRestarts: 0
c partial restarts: 0 saved decisions: 0 saved propagations: 0 recursives: 8
c uhd probe: 0.000000 s, 0 L2units, 0 L3units, 0 L4units
c LCM: 0.663179 s, 2 nbLCM, 13253 LCMclsAttempts, 4818 nbLCMclsSuccess, 7260 npConflLCMlits, 18583 nbLCMlits, 0 falsified, 0 positiveDrop, 18170 litsR1, 413 litsR2
c restarts              : 21 (3286 conflicts in avg)
c blocked restarts      : 863 (multiple: 16) 
c last block at restart : 21
c nb ReduceDB           : 6
c nb removed Clauses    : 48093
c nb learnts DL2        : 140
c nb learnts size 2     : 5
c nb learnts size 1     : 0
c conflicts             : 69008          (25066 /sec)
c decisions             : 81616          (0.00 % random) (29646 /sec)
c propagations          : 3239422        (1176667 /sec)
c conflict literals     : 884927         (25.81 % deleted)
c nb reduced Clauses    : 23
c Memory used           : 10.00 MB
c CPU time              : 2.75305 s
s SATISFIABLE
v 1 2 3 -4 -5 -6 7 -8 -9 -10 11 -12 -13 14 15 -16 17 18 -19 20 -21 -22 23 -24 25 26 27 28 -29 30 31 -32 -33 -34 35 -36 -37 38 -39 40 41 42 43 -44 45 -46 47 48 49 -50 -51 52 53 -54 -55 -56 57 -58 59 -60 -61 62 63 -64 65 -66 -67 68 -69 70 71 72 -73 -74 -75 76 77 78 79 -80 -81 -82 -83 -84 85 86 -87 -88 89 90 -91 -92 -93 94 95 96 -97 98 -99 -100 -101 102 -103 104 105 -106 107 108 109 110 111 112 -113 114 115 -116 -117 -118 119 -120 -121 122 123 -124 125 -126 -127 -128 129 130 131 -132 -133 -134 135 136 -137 138 139 -140 141 142 -143 -144 -145 146 147 148 -149 150 151 152 153 -154 155 -156 157 -158 -159 160 -161 -162 163 164 -165 166 -167 168 169 -170 171 172 -173 174 -175 -176 -177 -178 -179 180 -181 182 183 184 185 186 187 -188 -189 190 -191 192 193 -194 195 196 197 -198 199 -200 201 -202 -203 -204 -205 -206 207 208 209 -210 211 -212 -213 214 215 216 -217 -218 219 220 221 -222 -223 224 -225 226 227 -228 -229 -230 -231 -232 233 -234 235 236 237 -238 -239 240 241 242 243 244 -245 246 -247 -248 -249 -250 -251 -252 253 254 255 256 257 258 -259 -260 -261 -262 263 -264 -265 -266 -267 -268 -269 -270 -271 -272 273 -274 -275 276 -277 -278 279 -280 281 282 283 -284 285 -286 -287 -288 289 -290 -291 -292 293 -294 295 296 -297 298 -299 300 0

